25° run output:
{
    "Function": "kroA750.tsp",
    "Problem dimension": [
        381,
        498,
        241,
        555,
        507,
        207,
        590,
        302,
        385,
        499,
        391,
        51,
        485,
        521,
        610,
        193,
        658,
        484,
        293,
        572,
        553,
        460,
        159,
        74,
        342,
        726,
        608,
        720,
        728,
        440,
        243,
        602,
        205,
        122,
        211,
        200,
        171,
        341,
        406,
        509,
        400,
        562,
        502,
        365,
        431,
        372,
        280,
        220,
        28,
        607,
        688,
        421,
        692,
        330,
        132,
        422,
        486,
        204,
        141,
        80,
        579,
        180,
        514,
        532,
        285,
        41,
        615,
        730,
        670,
        471,
        710,
        463,
        652,
        388,
        483,
        631,
        543,
        347,
        417,
        236,
        405,
        186,
        164,
        476,
        489,
        437,
        250,
        101,
        163,
        640,
        546,
        126,
        550,
        307,
        304,
        529,
        477,
        416,
        155,
        596,
        570,
        624,
        503,
        512,
        34,
        35,
        363,
        271,
        500,
        554,
        201,
        7,
        144,
        124,
        459,
        729,
        97,
        138,
        588,
        591,
        699,
        252,
        415,
        746,
        743,
        686,
        609,
        176,
        267,
        24,
        52,
        277,
        549,
        701,
        401,
        338,
        435,
        713,
        745,
        530,
        495,
        196,
        137,
        6,
        44,
        683,
        297,
        61,
        299,
        145,
        353,
        441,
        244,
        497,
        84,
        569,
        611,
        580,
        314,
        288,
        478,
        281,
        488,
        479,
        522,
        711,
        262,
        287,
        606,
        666,
        154,
        227,
        67,
        702,
        68,
        43,
        454,
        386,
        247,
        165,
        5,
        337,
        511,
        194,
        343,
        370,
        448,
        749,
        424,
        294,
        504,
        693,
        442,
        362,
        628,
        501,
        538,
        684,
        578,
        104,
        318,
        153,
        109,
        621,
        232,
        651,
        682,
        300,
        420,
        130,
        706,
        681,
        648,
        526,
        598,
        322,
        544,
        73,
        273,
        107,
        329,
        403,
        741,
        254,
        584,
        240,
        724,
        576,
        561,
        685,
        619,
        494,
        99,
        707,
        269,
        505,
        38,
        21,
        305,
        397,
        336,
        233,
        311,
        675,
        642,
        623,
        92,
        433,
        677,
        712,
        239,
        547,
        50,
        456,
        351,
        637,
        696,
        586,
        601,
        335,
        272,
        467,
        452,
        32,
        583,
        697,
        537,
        57,
        473,
        46,
        295,
        123,
        249,
        226,
        134,
        492,
        147,
        451,
        668,
        286,
        117,
        198,
        256,
        378,
        430,
        739,
        587,
        223,
        192,
        366,
        733,
        354,
        208,
        135,
        173,
        731,
        361,
        65,
        443,
        518,
        64,
        719,
        326,
        23,
        742,
        146,
        490,
        210,
        30,
        674,
        89,
        410,
        595,
        465,
        605,
        517,
        413,
        345,
        367,
        603,
        622,
        142,
        450,
        276,
        643,
        660,
        33,
        545,
        349,
        727,
        143,
        149,
        487,
        445,
        558,
        374,
        654,
        565,
        170,
        638,
        231,
        162,
        9,
        520,
        219,
        136,
        585,
        482,
        355,
        279,
        531,
        331,
        717,
        687,
        389,
        246,
        392,
        292,
        510,
        714,
        636,
        700,
        594,
        722,
        177,
        75,
        20,
        432,
        209,
        102,
        567,
        523,
        127,
        703,
        646,
        66,
        339,
        81,
        418,
        332,
        187,
        626,
        466,
        627,
        319,
        105,
        461,
        698,
        270,
        85,
        358,
        551,
        540,
        221,
        377,
        206,
        212,
        738,
        690,
        573,
        114,
        37,
        53,
        79,
        197,
        217,
        604,
        150,
        334,
        393,
        315,
        63,
        62,
        266,
        390,
        2,
        600,
        616,
        589,
        740,
        352,
        593,
        581,
        676,
        111,
        564,
        548,
        324,
        563,
        734,
        464,
        290,
        613,
        125,
        535,
        168,
        225,
        283,
        183,
        457,
        237,
        242,
        534,
        382,
        557,
        222,
        296,
        428,
        574,
        22,
        662,
        718,
        238,
        191,
        396,
        689,
        284,
        8,
        516,
        203,
        528,
        106,
        747,
        199,
        566,
        303,
        139,
        632,
        453,
        340,
        468,
        70,
        215,
        691,
        264,
        39,
        289,
        614,
        649,
        268,
        542,
        181,
        98,
        493,
        375,
        258,
        359,
        407,
        310,
        255,
        475,
        376,
        672,
        735,
        96,
        346,
        140,
        42,
        309,
        133,
        93,
        87,
        708,
        113,
        265,
        321,
        160,
        387,
        112,
        323,
        409,
        119,
        76,
        634,
        344,
        312,
        202,
        408,
        582,
        715,
        506,
        470,
        131,
        110,
        618,
        182,
        26,
        120,
        156,
        58,
        653,
        673,
        95,
        15,
        261,
        480,
        368,
        161,
        54,
        1,
        88,
        645,
        190,
        333,
        78,
        228,
        369,
        519,
        620,
        184,
        663,
        167,
        560,
        72,
        434,
        399,
        55,
        525,
        556,
        398,
        260,
        655,
        744,
        536,
        71,
        612,
        69,
        172,
        527,
        633,
        178,
        383,
        4,
        129,
        224,
        94,
        657,
        25,
        629,
        248,
        301,
        27,
        394,
        423,
        671,
        559,
        328,
        313,
        213,
        121,
        169,
        31,
        617,
        230,
        189,
        59,
        748,
        60,
        694,
        251,
        152,
        36,
        350,
        481,
        704,
        103,
        18,
        469,
        316,
        49,
        541,
        257,
        705,
        438,
        659,
        402,
        291,
        320,
        679,
        306,
        29,
        166,
        723,
        472,
        48,
        508,
        446,
        128,
        82,
        380,
        115,
        229,
        429,
        395,
        47,
        647,
        425,
        148,
        17,
        317,
        592,
        411,
        195,
        234,
        455,
        327,
        308,
        356,
        13,
        639,
        414,
        116,
        157,
        278,
        218,
        274,
        725,
        447,
        568,
        235,
        721,
        404,
        737,
        175,
        665,
        216,
        412,
        736,
        599,
        91,
        439,
        90,
        436,
        100,
        151,
        253,
        577,
        474,
        426,
        656,
        539,
        16,
        716,
        245,
        86,
        174,
        364,
        214,
        552,
        419,
        373,
        10,
        40,
        298,
        641,
        179,
        695,
        357,
        661,
        496,
        732,
        11,
        384,
        379,
        667,
        575,
        188,
        348,
        709,
        458,
        669,
        371,
        263,
        449,
        462,
        630,
        3,
        282,
        0,
        513,
        360,
        14,
        158,
        635,
        275,
        325,
        12,
        597,
        444,
        19,
        644,
        515,
        259,
        678,
        45,
        77,
        625,
        680,
        650,
        491,
        533,
        108,
        427,
        524,
        185,
        571,
        56,
        118,
        664,
        83
    ],
    "Global Optimum": 0,
    "Algorithm": "Genetic algorithm",
    "Parameters": {
        "population": 30,
        "offspring": 30,
        "mutation probability": 0.0013333333333333333,
        "crossover probability": 0.9
    },
    "Fitness": 921624,
    "Solution": [
        381,
        498,
        241,
        555,
        507,
        207,
        590,
        302,
        385,
        499,
        391,
        51,
        485,
        521,
        610,
        193,
        658,
        484,
        293,
        572,
        553,
        460,
        159,
        74,
        342,
        726,
        608,
        720,
        728,
        440,
        243,
        602,
        205,
        122,
        211,
        200,
        171,
        341,
        406,
        509,
        400,
        562,
        502,
        365,
        431,
        372,
        280,
        220,
        28,
        607,
        688,
        421,
        692,
        330,
        132,
        422,
        486,
        204,
        141,
        80,
        579,
        180,
        514,
        532,
        285,
        41,
        615,
        730,
        670,
        471,
        710,
        463,
        652,
        388,
        483,
        631,
        543,
        347,
        417,
        236,
        405,
        186,
        164,
        476,
        489,
        437,
        250,
        101,
        163,
        640,
        546,
        126,
        550,
        307,
        304,
        529,
        477,
        416,
        155,
        596,
        570,
        624,
        503,
        512,
        34,
        35,
        363,
        271,
        500,
        554,
        201,
        7,
        144,
        124,
        459,
        729,
        97,
        138,
        588,
        591,
        699,
        252,
        415,
        746,
        743,
        686,
        609,
        176,
        267,
        24,
        52,
        277,
        549,
        701,
        401,
        338,
        435,
        713,
        745,
        530,
        495,
        196,
        137,
        6,
        44,
        683,
        297,
        61,
        299,
        145,
        353,
        441,
        244,
        497,
        84,
        569,
        611,
        580,
        314,
        288,
        478,
        281,
        488,
        479,
        522,
        711,
        262,
        287,
        606,
        666,
        154,
        227,
        67,
        702,
        68,
        43,
        454,
        386,
        247,
        165,
        5,
        337,
        511,
        194,
        343,
        370,
        448,
        749,
        424,
        294,
        504,
        693,
        442,
        362,
        628,
        501,
        538,
        684,
        578,
        104,
        318,
        153,
        109,
        621,
        232,
        651,
        682,
        300,
        420,
        130,
        706,
        681,
        648,
        526,
        598,
        322,
        544,
        73,
        273,
        107,
        329,
        403,
        741,
        254,
        584,
        240,
        724,
        576,
        561,
        685,
        619,
        494,
        99,
        707,
        269,
        505,
        38,
        21,
        305,
        397,
        336,
        233,
        311,
        675,
        642,
        623,
        92,
        433,
        677,
        712,
        239,
        547,
        50,
        456,
        351,
        637,
        696,
        586,
        601,
        335,
        272,
        467,
        452,
        32,
        583,
        697,
        537,
        57,
        473,
        46,
        295,
        123,
        249,
        226,
        134,
        492,
        147,
        451,
        668,
        286,
        117,
        198,
        256,
        378,
        430,
        739,
        587,
        223,
        192,
        366,
        733,
        354,
        208,
        135,
        173,
        731,
        361,
        65,
        443,
        518,
        64,
        719,
        326,
        23,
        742,
        146,
        490,
        210,
        30,
        674,
        89,
        410,
        595,
        465,
        605,
        517,
        413,
        345,
        367,
        603,
        622,
        142,
        450,
        276,
        643,
        660,
        33,
        545,
        349,
        727,
        143,
        149,
        487,
        445,
        558,
        374,
        654,
        565,
        170,
        638,
        231,
        162,
        9,
        520,
        219,
        136,
        585,
        482,
        355,
        279,
        531,
        331,
        717,
        687,
        389,
        246,
        392,
        292,
        510,
        714,
        636,
        700,
        594,
        722,
        177,
        75,
        20,
        432,
        209,
        102,
        567,
        523,
        127,
        703,
        646,
        66,
        339,
        81,
        418,
        332,
        187,
        626,
        466,
        627,
        319,
        105,
        461,
        698,
        270,
        85,
        358,
        551,
        540,
        221,
        377,
        206,
        212,
        738,
        690,
        573,
        114,
        37,
        53,
        79,
        197,
        217,
        604,
        150,
        334,
        393,
        315,
        63,
        62,
        266,
        390,
        2,
        600,
        616,
        589,
        740,
        352,
        593,
        581,
        676,
        111,
        564,
        548,
        324,
        563,
        734,
        464,
        290,
        613,
        125,
        535,
        168,
        225,
        283,
        183,
        457,
        237,
        242,
        534,
        382,
        557,
        222,
        296,
        428,
        574,
        22,
        662,
        718,
        238,
        191,
        396,
        689,
        284,
        8,
        516,
        203,
        528,
        106,
        747,
        199,
        566,
        303,
        139,
        632,
        453,
        340,
        468,
        70,
        215,
        691,
        264,
        39,
        289,
        614,
        649,
        268,
        542,
        181,
        98,
        493,
        375,
        258,
        359,
        407,
        310,
        255,
        475,
        376,
        672,
        735,
        96,
        346,
        140,
        42,
        309,
        133,
        93,
        87,
        708,
        113,
        265,
        321,
        160,
        387,
        112,
        323,
        409,
        119,
        76,
        634,
        344,
        312,
        202,
        408,
        582,
        715,
        506,
        470,
        131,
        110,
        618,
        182,
        26,
        120,
        156,
        58,
        653,
        673,
        95,
        15,
        261,
        480,
        368,
        161,
        54,
        1,
        88,
        645,
        190,
        333,
        78,
        228,
        369,
        519,
        620,
        184,
        663,
        167,
        560,
        72,
        434,
        399,
        55,
        525,
        556,
        398,
        260,
        655,
        744,
        536,
        71,
        612,
        69,
        172,
        527,
        633,
        178,
        383,
        4,
        129,
        224,
        94,
        657,
        25,
        629,
        248,
        301,
        27,
        394,
        423,
        671,
        559,
        328,
        313,
        213,
        121,
        169,
        31,
        617,
        230,
        189,
        59,
        748,
        60,
        694,
        251,
        152,
        36,
        350,
        481,
        704,
        103,
        18,
        469,
        316,
        49,
        541,
        257,
        705,
        438,
        659,
        402,
        291,
        320,
        679,
        306,
        29,
        166,
        723,
        472,
        48,
        508,
        446,
        128,
        82,
        380,
        115,
        229,
        429,
        395,
        47,
        647,
        425,
        148,
        17,
        317,
        592,
        411,
        195,
        234,
        455,
        327,
        308,
        356,
        13,
        639,
        414,
        116,
        157,
        278,
        218,
        274,
        725,
        447,
        568,
        235,
        721,
        404,
        737,
        175,
        665,
        216,
        412,
        736,
        599,
        91,
        439,
        90,
        436,
        100,
        151,
        253,
        577,
        474,
        426,
        656,
        539,
        16,
        716,
        245,
        86,
        174,
        364,
        214,
        552,
        419,
        373,
        10,
        40,
        298,
        641,
        179,
        695,
        357,
        661,
        496,
        732,
        11,
        384,
        379,
        667,
        575,
        188,
        348,
        709,
        458,
        669,
        371,
        263,
        449,
        462,
        630,
        3,
        282,
        0,
        513,
        360,
        14,
        158,
        635,
        275,
        325,
        12,
        597,
        444,
        19,
        644,
        515,
        259,
        678,
        45,
        77,
        625,
        680,
        650,
        491,
        533,
        108,
        427,
        524,
        185,
        571,
        56,
        118,
        664,
        83
    ],
    "Nb of functions evaluations": 200010,
    "Computational time in seconds": 1700.0716145038605,
    "Stopping criterion in evaluations": 200000
}